\* California_Mfg(Facility_location) *\
Maximize
OBJ: 9 x_1 + 5 x_2 + 6 x_3 + 4 x_4
Subject To
_C1: 6 x_1 + 3 x_2 + 5 x_3 + 2 x_4 <= 10
_C2: x_3 + x_4 <= 1
Bounds
x_1 <= 1
x_2 <= 1
End

¡° Optimal Result ¡°

¡» x_1 = 1

¡» x_2 = 1

¡» x_3 = 0

¡» x_4 = 0

¡» Optimal_value = 14.0